TYPE : Vertex Cover
DIMENSION: 29
EDGE_DATA_SECTION:
0 4
0 5
0 7
0 8
0 13
0 15
0 17
0 18
0 22
0 28
1 10
1 15
1 16
1 17
1 23
1 24
2 4
2 7
2 15
2 18
2 19
2 21
2 24
2 27
3 5
3 6
3 12
3 19
3 21
3 25
3 26
4 5
4 6
4 9
4 12
4 14
4 17
4 22
4 26
4 28
5 7
5 8
5 12
5 14
5 16
5 18
5 20
5 25
6 8
6 11
6 13
6 16
6 27
7 13
7 14
7 18
7 26
8 10
8 12
8 18
8 19
8 21
8 22
9 11
9 15
9 16
9 18
9 22
10 19
10 21
10 22
10 28
11 15
11 16
11 17
11 22
12 16
12 19
12 21
12 22
12 24
12 26
13 16
13 19
13 20
13 21
13 27
14 16
14 17
14 24
15 17
15 20
15 22
16 19
16 21
17 23
17 26
17 28
18 20
18 25
18 26
19 22
19 24
19 26
19 27
20 22
20 24
21 22
23 24
23 25
23 28
24 27
24 28
25 26
25 28
26 28
-1
VERTEX_DEGREE:
10.0 6.0 8.0 7.0 11.0 11.0 7.0 7.0 9.0 6.0 6.0 6.0 10.0 8.0 6.0 8.0 10.0 9.0 9.0 11.0 6.0 8.0 11.0 5.0 9.0 6.0 9.0 5.0 8.0
VERTEX_COVER:
3 4 5 7 8 10 11 13 15 16 17 18 19 21 22 23 24 26 27 28
EOF
